benchmark/results/graph__10-1000-0.10-04_18/graph__10-1000-0.10-04_18_Quinton_Benders_sub.lp
\ This file has been generated by DOcplex
\ ENCODING=ISO-8859-1
\Problem name: Quinton Benders_dual_sub

Minimize
 obj: 0.000900090009 pi_nr_a0 + 0.000915750916 pi_nr_a1
      + 0.003533568905 pi_nr_a2 + 0.000996015936 pi_nr_a3
      + 0.001076426265 pi_nr_a4 + 0.001070663812 pi_nr_a5
      + 0.001094091904 pi_nr_a6 + 0.000798722045 pi_nr_a7
      + 0.000780031201 pi_nr_a8 + 0.000827129859 pi_nr_a9 + pi_p_a2_a5
      + pi_p_a8_a3 + pi_p_a4_a4 + pi_d_a0_a1_proc_1
      + 1000001281 pi_d_a0_a2_proc_2 + 999999999 pi_d_a0_a2_proc_3
      - 999996152 pi_d_a2_a0_proc_2 - 999997434 pi_d_a2_a0_proc_3
      + 3846 pi_d_a0_a3_proc_2 + 2564 pi_d_a0_a3_proc_3 + 1283 pi_d_a3_a0_proc_2
      + pi_d_a3_a0_proc_3 + 3846 pi_d_a0_a4_proc_2 + 3846 pi_d_a0_a4_proc_3
      + 2564 pi_d_a0_a4_proc_1 + 1283 pi_d_a4_a0_proc_2 + 1283 pi_d_a4_a0_proc_3
      + pi_d_a4_a0_proc_1 + 999999999 pi_d_a0_a5_proc_2
      + 999999999 pi_d_a0_a5_proc_3 + 999997435 pi_d_a0_a5_proc_1
      - 999994870 pi_d_a5_a0_proc_2 - 999994870 pi_d_a5_a0_proc_3
      - 999997434 pi_d_a5_a0_proc_1 + 999999999 pi_d_a0_a6_proc_3
      + 999999999 pi_d_a0_a6_proc_1 - 999997434 pi_d_a6_a0_proc_3
      - 999997434 pi_d_a6_a0_proc_1 + pi_d_a7_a0_proc_1 + 3846 pi_d_a0_a8_proc_2
      + 2564 pi_d_a0_a8_proc_3 + 1283 pi_d_a8_a0_proc_2 + pi_d_a8_a0_proc_3
      + 999999999 pi_d_a0_a9_proc_3 + 999997435 pi_d_a0_a9_proc_1
      - 999994870 pi_d_a9_a0_proc_3 - 999997434 pi_d_a9_a0_proc_1
      + 1000002563 pi_d_a1_a2_proc_0 - 999997434 pi_d_a2_a1_proc_0
      + 5128 pi_d_a1_a3_proc_0 + pi_d_a3_a1_proc_0 + 2564 pi_d_a1_a4_proc_0
      + 2564 pi_d_a1_a4_proc_1 + pi_d_a4_a1_proc_0 + pi_d_a4_a1_proc_1
      + 999999999 pi_d_a1_a5_proc_0 + 999997435 pi_d_a1_a5_proc_1
      - 999994870 pi_d_a5_a1_proc_0 - 999997434 pi_d_a5_a1_proc_1
      + 1000001281 pi_d_a1_a6_proc_0 + 999999999 pi_d_a1_a6_proc_1
      - 999996152 pi_d_a6_a1_proc_0 - 999997434 pi_d_a6_a1_proc_1
      + pi_d_a7_a1_proc_1 + 5128 pi_d_a1_a8_proc_0 + pi_d_a8_a1_proc_0
      + 999999999 pi_d_a1_a9_proc_0 + 999997435 pi_d_a1_a9_proc_1
      - 999994870 pi_d_a9_a1_proc_0 - 999997434 pi_d_a9_a1_proc_1
      - 999994870 pi_d_a2_a3_proc_2 - 999997434 pi_d_a2_a3_proc_3
      - 999994870 pi_d_a2_a3_proc_0 + 999999999 pi_d_a3_a2_proc_2
      + 999997435 pi_d_a3_a2_proc_3 + 999999999 pi_d_a3_a2_proc_0
      - 999993588 pi_d_a2_a4_proc_2 - 999994870 pi_d_a2_a4_proc_3
      - 999994870 pi_d_a2_a4_proc_0 + 999998717 pi_d_a4_a2_proc_2
      + 999997435 pi_d_a4_a2_proc_3 + 999997435 pi_d_a4_a2_proc_0
      + 3847 pi_d_a2_a5_proc_2 + 2565 pi_d_a2_a5_proc_3 + 3847 pi_d_a2_a5_proc_0
      + 1282 pi_d_a5_a2_proc_2 + 1282 pi_d_a5_a2_proc_0 + pi_d_a2_a6_proc_3
      + 2565 pi_d_a2_a6_proc_0 + 2564 pi_d_a6_a2_proc_0
      - 999994871 pi_d_a2_a8_proc_2 - 999997435 pi_d_a2_a8_proc_3
      - 999994871 pi_d_a2_a8_proc_0 + 1000000000 pi_d_a8_a2_proc_2
      + 999997436 pi_d_a8_a2_proc_3 + 1000000000 pi_d_a8_a2_proc_0
      + 2564 pi_d_a2_a9_proc_3 + 3846 pi_d_a2_a9_proc_0 + pi_d_a9_a2_proc_3
      + 1283 pi_d_a9_a2_proc_0 + 3846 pi_d_a3_a4_proc_2 + 2564 pi_d_a3_a4_proc_3
      + 2564 pi_d_a3_a4_proc_0 + 1283 pi_d_a4_a3_proc_2 + pi_d_a4_a3_proc_3
      + pi_d_a4_a3_proc_0 + 1000001281 pi_d_a3_a5_proc_2
      + 999999999 pi_d_a3_a5_proc_3 + 1000001281 pi_d_a3_a5_proc_0
      - 999996152 pi_d_a5_a3_proc_2 - 999997434 pi_d_a5_a3_proc_3
      - 999996152 pi_d_a5_a3_proc_0 + 999997435 pi_d_a3_a6_proc_3
      + 999999999 pi_d_a3_a6_proc_0 - 999997434 pi_d_a6_a3_proc_3
      - 999994870 pi_d_a6_a3_proc_0 + 2564 pi_d_a3_a8_proc_2
      + 2564 pi_d_a3_a8_proc_0 + 2565 pi_d_a8_a3_proc_2 + pi_d_a8_a3_proc_3
      + 2565 pi_d_a8_a3_proc_0 + 999999999 pi_d_a3_a9_proc_3
      + 1000001281 pi_d_a3_a9_proc_0 - 999997434 pi_d_a9_a3_proc_3
      - 999996152 pi_d_a9_a3_proc_0 + 1000001281 pi_d_a4_a5_proc_2
      + 1000001281 pi_d_a4_a5_proc_3 + 999999999 pi_d_a4_a5_proc_0
      + 999999999 pi_d_a4_a5_proc_1 - 999996152 pi_d_a5_a4_proc_2
      - 999996152 pi_d_a5_a4_proc_3 - 999997434 pi_d_a5_a4_proc_0
      - 999997434 pi_d_a5_a4_proc_1 + 999999999 pi_d_a4_a6_proc_3
      + 999999999 pi_d_a4_a6_proc_0 + 1000001281 pi_d_a4_a6_proc_1
      - 999997434 pi_d_a6_a4_proc_3 - 999997434 pi_d_a6_a4_proc_0
      - 999996152 pi_d_a6_a4_proc_1 + 2564 pi_d_a4_a7_proc_1 + pi_d_a7_a4_proc_1
      + 3846 pi_d_a4_a8_proc_2 + 2564 pi_d_a4_a8_proc_3 + 2564 pi_d_a4_a8_proc_0
      + 1283 pi_d_a8_a4_proc_2 + pi_d_a8_a4_proc_3 + pi_d_a8_a4_proc_0
      + 1000001281 pi_d_a4_a9_proc_3 + 999999999 pi_d_a4_a9_proc_0
      + 999999999 pi_d_a4_a9_proc_1 - 999996152 pi_d_a9_a4_proc_3
      - 999997434 pi_d_a9_a4_proc_0 - 999997434 pi_d_a9_a4_proc_1
      + 2564 pi_d_a5_a6_proc_3 + 3846 pi_d_a5_a6_proc_0 + 2564 pi_d_a5_a6_proc_1
      + pi_d_a6_a5_proc_3 + 1283 pi_d_a6_a5_proc_0 + pi_d_a6_a5_proc_1
      - 999997435 pi_d_a5_a7_proc_1 + 999997436 pi_d_a7_a5_proc_1
      - 999993589 pi_d_a5_a8_proc_2 - 999994871 pi_d_a5_a8_proc_3
      - 999993589 pi_d_a5_a8_proc_0 + 999998718 pi_d_a8_a5_proc_2
      + 999997436 pi_d_a8_a5_proc_3 + 999998718 pi_d_a8_a5_proc_0
      + 2564 pi_d_a5_a9_proc_3 + 2564 pi_d_a5_a9_proc_0 + 2565 pi_d_a9_a5_proc_3
      + 2565 pi_d_a9_a5_proc_0 + pi_d_a9_a5_proc_1 - 999994871 pi_d_a6_a7_proc_1
      + 999997436 pi_d_a7_a6_proc_1 - 999997435 pi_d_a6_a8_proc_3
      - 999994871 pi_d_a6_a8_proc_0 + 999997436 pi_d_a8_a6_proc_3
      + 1000000000 pi_d_a8_a6_proc_0 + 2564 pi_d_a6_a9_proc_3
      + 3846 pi_d_a6_a9_proc_0 + 2564 pi_d_a6_a9_proc_1 + pi_d_a9_a6_proc_3
      + 1283 pi_d_a9_a6_proc_0 + pi_d_a9_a6_proc_1 + 999997436 pi_d_a7_a9_proc_1
      - 999997435 pi_d_a9_a7_proc_1 + 1000000000 pi_d_a8_a9_proc_3
      + 1000001282 pi_d_a8_a9_proc_0 - 999997435 pi_d_a9_a8_proc_3
      - 999996153 pi_d_a9_a8_proc_0 + pi_y2_a0_proc_1 + pi_y2_a1_proc_1
      + pi_y2_a2_proc_3 + pi_y2_a3_proc_3 + pi_y2_a4_proc_0 + pi_y2_a5_proc_1
      + pi_y2_a6_proc_3 + pi_y2_a7_proc_1 + pi_y2_a8_proc_3 + pi_y2_a9_proc_1
Subject To
 c1: pi_nr_a0 + pi_nr_a1 + pi_nr_a2 + pi_nr_a3 + pi_nr_a4 + pi_nr_a5 + pi_nr_a6
     + pi_nr_a7 + pi_nr_a8 + pi_nr_a9 - pi_y1_a0 - pi_y1_a1 - pi_y1_a2
     - pi_y1_a3 - pi_y1_a4 - pi_y1_a5 - pi_y1_a6 - pi_y1_a7 - pi_y1_a8
     - pi_y1_a9 >= 1
 c2: - pi_p_a1_a0 - pi_p_a2_a0 + pi_p_a0_a3 + pi_d_a0_a1_proc_1
     - pi_d_a1_a0_proc_1 + pi_d_a0_a2_proc_2 + pi_d_a0_a2_proc_3
     - pi_d_a2_a0_proc_2 - pi_d_a2_a0_proc_3 + pi_d_a0_a3_proc_2
     + pi_d_a0_a3_proc_3 - pi_d_a3_a0_proc_2 - pi_d_a3_a0_proc_3
     + pi_d_a0_a4_proc_2 + pi_d_a0_a4_proc_3 + pi_d_a0_a4_proc_1
     - pi_d_a4_a0_proc_2 - pi_d_a4_a0_proc_3 - pi_d_a4_a0_proc_1
     + pi_d_a0_a5_proc_2 + pi_d_a0_a5_proc_3 + pi_d_a0_a5_proc_1
     - pi_d_a5_a0_proc_2 - pi_d_a5_a0_proc_3 - pi_d_a5_a0_proc_1
     + pi_d_a0_a6_proc_3 + pi_d_a0_a6_proc_1 - pi_d_a6_a0_proc_3
     - pi_d_a6_a0_proc_1 + pi_d_a0_a7_proc_1 - pi_d_a7_a0_proc_1
     + pi_d_a0_a8_proc_2 + pi_d_a0_a8_proc_3 - pi_d_a8_a0_proc_2
     - pi_d_a8_a0_proc_3 + pi_d_a0_a9_proc_3 + pi_d_a0_a9_proc_1
     - pi_d_a9_a0_proc_3 - pi_d_a9_a0_proc_1 >= 0
 c3: 1111 pi_p_a0_a3 + 1111 pi_d_a0_a1_proc_1 + 1111 pi_d_a0_a4_proc_1
     + 1111 pi_d_a0_a5_proc_1 + 1111 pi_d_a0_a6_proc_1 + 1111 pi_d_a0_a7_proc_1
     + 1111 pi_d_a0_a9_proc_1 + pi_y1_a0 + pi_y2_a0_proc_1 >= 0
 c4: 1028 pi_p_a0_a3 + 1028 pi_d_a0_a2_proc_2 + 1028 pi_d_a0_a3_proc_2
     + 1028 pi_d_a0_a4_proc_2 + 1028 pi_d_a0_a5_proc_2 + 1028 pi_d_a0_a8_proc_2
     + pi_y1_a0 + pi_y2_a0_proc_2 >= 0
 c5: 832 pi_p_a0_a3 + 832 pi_d_a0_a2_proc_3 + 832 pi_d_a0_a3_proc_3
     + 832 pi_d_a0_a4_proc_3 + 832 pi_d_a0_a5_proc_3 + 832 pi_d_a0_a6_proc_3
     + 832 pi_d_a0_a8_proc_3 + 832 pi_d_a0_a9_proc_3 + pi_y1_a0
     + pi_y2_a0_proc_3 >= 0
 c6: pi_p_a1_a0 - pi_p_a9_a1 - pi_p_a5_a1 - pi_d_a0_a1_proc_1
     + pi_d_a1_a0_proc_1 + pi_d_a1_a2_proc_0 - pi_d_a2_a1_proc_0
     + pi_d_a1_a3_proc_0 - pi_d_a3_a1_proc_0 + pi_d_a1_a4_proc_0
     + pi_d_a1_a4_proc_1 - pi_d_a4_a1_proc_0 - pi_d_a4_a1_proc_1
     + pi_d_a1_a5_proc_0 + pi_d_a1_a5_proc_1 - pi_d_a5_a1_proc_0
     - pi_d_a5_a1_proc_1 + pi_d_a1_a6_proc_0 + pi_d_a1_a6_proc_1
     - pi_d_a6_a1_proc_0 - pi_d_a6_a1_proc_1 + pi_d_a1_a7_proc_1
     - pi_d_a7_a1_proc_1 + pi_d_a1_a8_proc_0 - pi_d_a8_a1_proc_0
     + pi_d_a1_a9_proc_0 + pi_d_a1_a9_proc_1 - pi_d_a9_a1_proc_0
     - pi_d_a9_a1_proc_1 >= 0
 c7: 634 pi_p_a1_a0 + 634 pi_d_a1_a2_proc_0 + 634 pi_d_a1_a3_proc_0
     + 634 pi_d_a1_a4_proc_0 + 634 pi_d_a1_a5_proc_0 + 634 pi_d_a1_a6_proc_0
     + 634 pi_d_a1_a8_proc_0 + 634 pi_d_a1_a9_proc_0 + pi_y1_a1
     + pi_y2_a1_proc_0 >= 0
 c8: 1092 pi_p_a1_a0 + 1092 pi_d_a1_a0_proc_1 + 1092 pi_d_a1_a4_proc_1
     + 1092 pi_d_a1_a5_proc_1 + 1092 pi_d_a1_a6_proc_1 + 1092 pi_d_a1_a7_proc_1
     + 1092 pi_d_a1_a9_proc_1 + pi_y1_a1 + pi_y2_a1_proc_1 >= 0
 c9: pi_p_a2_a0 + pi_p_a2_a5 + pi_p_a2_a8 - pi_p_a6_a2 - pi_d_a0_a2_proc_2
     - pi_d_a0_a2_proc_3 + pi_d_a2_a0_proc_2 + pi_d_a2_a0_proc_3
     - pi_d_a1_a2_proc_0 + pi_d_a2_a1_proc_0 + pi_d_a2_a3_proc_2
     + pi_d_a2_a3_proc_3 + pi_d_a2_a3_proc_0 - pi_d_a3_a2_proc_2
     - pi_d_a3_a2_proc_3 - pi_d_a3_a2_proc_0 + pi_d_a2_a4_proc_2
     + pi_d_a2_a4_proc_3 + pi_d_a2_a4_proc_0 - pi_d_a4_a2_proc_2
     - pi_d_a4_a2_proc_3 - pi_d_a4_a2_proc_0 + pi_d_a2_a5_proc_2
     + pi_d_a2_a5_proc_3 + pi_d_a2_a5_proc_0 - pi_d_a5_a2_proc_2
     - pi_d_a5_a2_proc_3 - pi_d_a5_a2_proc_0 + pi_d_a2_a6_proc_3
     + pi_d_a2_a6_proc_0 - pi_d_a6_a2_proc_3 - pi_d_a6_a2_proc_0
     + pi_d_a2_a8_proc_2 + pi_d_a2_a8_proc_3 + pi_d_a2_a8_proc_0
     - pi_d_a8_a2_proc_2 - pi_d_a8_a2_proc_3 - pi_d_a8_a2_proc_0
     + pi_d_a2_a9_proc_3 + pi_d_a2_a9_proc_0 - pi_d_a9_a2_proc_3
     - pi_d_a9_a2_proc_0 >= 0
 c10: 773 pi_p_a2_a0 + 773 pi_p_a2_a5 + 773 pi_p_a2_a8 + 773 pi_d_a2_a1_proc_0
      + 773 pi_d_a2_a3_proc_0 + 773 pi_d_a2_a4_proc_0 + 773 pi_d_a2_a5_proc_0
      + 773 pi_d_a2_a6_proc_0 + 773 pi_d_a2_a8_proc_0 + 773 pi_d_a2_a9_proc_0
      + pi_y1_a2 + pi_y2_a2_proc_0 >= 0
 c11: 874 pi_p_a2_a0 + 874 pi_p_a2_a5 + 874 pi_p_a2_a8 + 874 pi_d_a2_a0_proc_2
      + 874 pi_d_a2_a3_proc_2 + 874 pi_d_a2_a4_proc_2 + 874 pi_d_a2_a5_proc_2
      + 874 pi_d_a2_a8_proc_2 + pi_y1_a2 + pi_y2_a2_proc_2 >= 0
 c12: 283 pi_p_a2_a0 + 283 pi_p_a2_a5 + 283 pi_p_a2_a8 + 283 pi_d_a2_a0_proc_3
      + 283 pi_d_a2_a3_proc_3 + 283 pi_d_a2_a4_proc_3 + 283 pi_d_a2_a5_proc_3
      + 283 pi_d_a2_a6_proc_3 + 283 pi_d_a2_a8_proc_3 + 283 pi_d_a2_a9_proc_3
      + pi_y1_a2 + pi_y2_a2_proc_3 >= 0
 c13: - pi_p_a0_a3 + pi_p_a3_a4 - pi_p_a8_a3 - pi_d_a0_a3_proc_2
      - pi_d_a0_a3_proc_3 + pi_d_a3_a0_proc_2 + pi_d_a3_a0_proc_3
      - pi_d_a1_a3_proc_0 + pi_d_a3_a1_proc_0 - pi_d_a2_a3_proc_2
      - pi_d_a2_a3_proc_3 - pi_d_a2_a3_proc_0 + pi_d_a3_a2_proc_2
      + pi_d_a3_a2_proc_3 + pi_d_a3_a2_proc_0 + pi_d_a3_a4_proc_2
      + pi_d_a3_a4_proc_3 + pi_d_a3_a4_proc_0 - pi_d_a4_a3_proc_2
      - pi_d_a4_a3_proc_3 - pi_d_a4_a3_proc_0 + pi_d_a3_a5_proc_2
      + pi_d_a3_a5_proc_3 + pi_d_a3_a5_proc_0 - pi_d_a5_a3_proc_2
      - pi_d_a5_a3_proc_3 - pi_d_a5_a3_proc_0 + pi_d_a3_a6_proc_3
      + pi_d_a3_a6_proc_0 - pi_d_a6_a3_proc_3 - pi_d_a6_a3_proc_0
      + pi_d_a3_a8_proc_2 + pi_d_a3_a8_proc_3 + pi_d_a3_a8_proc_0
      - pi_d_a8_a3_proc_2 - pi_d_a8_a3_proc_3 - pi_d_a8_a3_proc_0
      + pi_d_a3_a9_proc_3 + pi_d_a3_a9_proc_0 - pi_d_a9_a3_proc_3
      - pi_d_a9_a3_proc_0 >= 0
 c14: 1002 pi_p_a3_a4 + 1002 pi_d_a3_a1_proc_0 + 1002 pi_d_a3_a2_proc_0
      + 1002 pi_d_a3_a4_proc_0 + 1002 pi_d_a3_a5_proc_0 + 1002 pi_d_a3_a6_proc_0
      + 1002 pi_d_a3_a8_proc_0 + 1002 pi_d_a3_a9_proc_0 + pi_y1_a3
      + pi_y2_a3_proc_0 >= 0
 c15: 1191 pi_p_a3_a4 + 1191 pi_d_a3_a0_proc_2 + 1191 pi_d_a3_a2_proc_2
      + 1191 pi_d_a3_a4_proc_2 + 1191 pi_d_a3_a5_proc_2 + 1191 pi_d_a3_a8_proc_2
      + pi_y1_a3 + pi_y2_a3_proc_2 >= 0
 c16: 1004 pi_p_a3_a4 + 1004 pi_d_a3_a0_proc_3 + 1004 pi_d_a3_a2_proc_3
      + 1004 pi_d_a3_a4_proc_3 + 1004 pi_d_a3_a5_proc_3 + 1004 pi_d_a3_a6_proc_3
      + 1004 pi_d_a3_a8_proc_3 + 1004 pi_d_a3_a9_proc_3 + pi_y1_a3
      + pi_y2_a3_proc_3 >= 0
 c17: - pi_p_a3_a4 + pi_p_a4_a8 - pi_d_a0_a4_proc_2 - pi_d_a0_a4_proc_3
      - pi_d_a0_a4_proc_1 + pi_d_a4_a0_proc_2 + pi_d_a4_a0_proc_3
      + pi_d_a4_a0_proc_1 - pi_d_a1_a4_proc_0 - pi_d_a1_a4_proc_1
      + pi_d_a4_a1_proc_0 + pi_d_a4_a1_proc_1 - pi_d_a2_a4_proc_2
      - pi_d_a2_a4_proc_3 - pi_d_a2_a4_proc_0 + pi_d_a4_a2_proc_2
      + pi_d_a4_a2_proc_3 + pi_d_a4_a2_proc_0 - pi_d_a3_a4_proc_2
      - pi_d_a3_a4_proc_3 - pi_d_a3_a4_proc_0 + pi_d_a4_a3_proc_2
      + pi_d_a4_a3_proc_3 + pi_d_a4_a3_proc_0 + pi_d_a4_a5_proc_2
      + pi_d_a4_a5_proc_3 + pi_d_a4_a5_proc_0 + pi_d_a4_a5_proc_1
      - pi_d_a5_a4_proc_2 - pi_d_a5_a4_proc_3 - pi_d_a5_a4_proc_0
      - pi_d_a5_a4_proc_1 + pi_d_a4_a6_proc_3 + pi_d_a4_a6_proc_0
      + pi_d_a4_a6_proc_1 - pi_d_a6_a4_proc_3 - pi_d_a6_a4_proc_0
      - pi_d_a6_a4_proc_1 + pi_d_a4_a7_proc_1 - pi_d_a7_a4_proc_1
      + pi_d_a4_a8_proc_2 + pi_d_a4_a8_proc_3 + pi_d_a4_a8_proc_0
      - pi_d_a8_a4_proc_2 - pi_d_a8_a4_proc_3 - pi_d_a8_a4_proc_0
      + pi_d_a4_a9_proc_3 + pi_d_a4_a9_proc_0 + pi_d_a4_a9_proc_1
      - pi_d_a9_a4_proc_3 - pi_d_a9_a4_proc_0 - pi_d_a9_a4_proc_1 >= 0
 c18: 929 pi_p_a4_a8 + 929 pi_p_a4_a4 + 929 pi_d_a4_a1_proc_0
      + 929 pi_d_a4_a2_proc_0 + 929 pi_d_a4_a3_proc_0 + 929 pi_d_a4_a5_proc_0
      + 929 pi_d_a4_a6_proc_0 + 929 pi_d_a4_a8_proc_0 + 929 pi_d_a4_a9_proc_0
      + pi_y1_a4 + pi_y2_a4_proc_0 >= 0
 c19: 1147 pi_p_a4_a8 + 1147 pi_p_a4_a4 + 1147 pi_d_a4_a0_proc_1
      + 1147 pi_d_a4_a1_proc_1 + 1147 pi_d_a4_a5_proc_1 + 1147 pi_d_a4_a6_proc_1
      + 1147 pi_d_a4_a7_proc_1 + 1147 pi_d_a4_a9_proc_1 + pi_y1_a4
      + pi_y2_a4_proc_1 >= 0
 c20: 715 pi_p_a4_a8 + 715 pi_p_a4_a4 + 715 pi_d_a4_a0_proc_2
      + 715 pi_d_a4_a2_proc_2 + 715 pi_d_a4_a3_proc_2 + 715 pi_d_a4_a5_proc_2
      + 715 pi_d_a4_a8_proc_2 + pi_y1_a4 + pi_y2_a4_proc_2 >= 0
 c21: 796 pi_p_a4_a8 + 796 pi_p_a4_a4 + 796 pi_d_a4_a0_proc_3
      + 796 pi_d_a4_a2_proc_3 + 796 pi_d_a4_a3_proc_3 + 796 pi_d_a4_a5_proc_3
      + 796 pi_d_a4_a6_proc_3 + 796 pi_d_a4_a8_proc_3 + 796 pi_d_a4_a9_proc_3
      + pi_y1_a4 + pi_y2_a4_proc_3 >= 0
 c22: - pi_p_a2_a5 + pi_p_a5_a6 + pi_p_a5_a1 - pi_d_a0_a5_proc_2
      - pi_d_a0_a5_proc_3 - pi_d_a0_a5_proc_1 + pi_d_a5_a0_proc_2
      + pi_d_a5_a0_proc_3 + pi_d_a5_a0_proc_1 - pi_d_a1_a5_proc_0
      - pi_d_a1_a5_proc_1 + pi_d_a5_a1_proc_0 + pi_d_a5_a1_proc_1
      - pi_d_a2_a5_proc_2 - pi_d_a2_a5_proc_3 - pi_d_a2_a5_proc_0
      + pi_d_a5_a2_proc_2 + pi_d_a5_a2_proc_3 + pi_d_a5_a2_proc_0
      - pi_d_a3_a5_proc_2 - pi_d_a3_a5_proc_3 - pi_d_a3_a5_proc_0
      + pi_d_a5_a3_proc_2 + pi_d_a5_a3_proc_3 + pi_d_a5_a3_proc_0
      - pi_d_a4_a5_proc_2 - pi_d_a4_a5_proc_3 - pi_d_a4_a5_proc_0
      - pi_d_a4_a5_proc_1 + pi_d_a5_a4_proc_2 + pi_d_a5_a4_proc_3
      + pi_d_a5_a4_proc_0 + pi_d_a5_a4_proc_1 + pi_d_a5_a6_proc_3
      + pi_d_a5_a6_proc_0 + pi_d_a5_a6_proc_1 - pi_d_a6_a5_proc_3
      - pi_d_a6_a5_proc_0 - pi_d_a6_a5_proc_1 + pi_d_a5_a7_proc_1
      - pi_d_a7_a5_proc_1 + pi_d_a5_a8_proc_2 + pi_d_a5_a8_proc_3
      + pi_d_a5_a8_proc_0 - pi_d_a8_a5_proc_2 - pi_d_a8_a5_proc_3
      - pi_d_a8_a5_proc_0 + pi_d_a5_a9_proc_3 + pi_d_a5_a9_proc_0
      + pi_d_a5_a9_proc_1 - pi_d_a9_a5_proc_3 - pi_d_a9_a5_proc_0
      - pi_d_a9_a5_proc_1 >= 0
 c23: 1130 pi_p_a5_a6 + 1130 pi_p_a5_a1 + 1130 pi_d_a5_a1_proc_0
      + 1130 pi_d_a5_a2_proc_0 + 1130 pi_d_a5_a3_proc_0 + 1130 pi_d_a5_a4_proc_0
      + 1130 pi_d_a5_a6_proc_0 + 1130 pi_d_a5_a8_proc_0 + 1130 pi_d_a5_a9_proc_0
      + pi_y1_a5 + pi_y2_a5_proc_0 >= 0
 c24: 934 pi_p_a5_a6 + 934 pi_p_a5_a1 + 934 pi_d_a5_a0_proc_1
      + 934 pi_d_a5_a1_proc_1 + 934 pi_d_a5_a4_proc_1 + 934 pi_d_a5_a6_proc_1
      + 934 pi_d_a5_a7_proc_1 + 934 pi_d_a5_a9_proc_1 + pi_y1_a5
      + pi_y2_a5_proc_1 >= 0
 c25: 1112 pi_p_a5_a6 + 1112 pi_p_a5_a1 + 1112 pi_d_a5_a0_proc_2
      + 1112 pi_d_a5_a2_proc_2 + 1112 pi_d_a5_a3_proc_2 + 1112 pi_d_a5_a4_proc_2
      + 1112 pi_d_a5_a8_proc_2 + pi_y1_a5 + pi_y2_a5_proc_2 >= 0
 c26: 858 pi_p_a5_a6 + 858 pi_p_a5_a1 + 858 pi_d_a5_a0_proc_3
      + 858 pi_d_a5_a2_proc_3 + 858 pi_d_a5_a3_proc_3 + 858 pi_d_a5_a4_proc_3
      + 858 pi_d_a5_a6_proc_3 + 858 pi_d_a5_a8_proc_3 + 858 pi_d_a5_a9_proc_3
      + pi_y1_a5 + pi_y2_a5_proc_3 >= 0
 c27: - pi_p_a5_a6 + pi_p_a6_a7 + pi_p_a6_a2 + pi_p_a6_a9 - pi_d_a0_a6_proc_3
      - pi_d_a0_a6_proc_1 + pi_d_a6_a0_proc_3 + pi_d_a6_a0_proc_1
      - pi_d_a1_a6_proc_0 - pi_d_a1_a6_proc_1 + pi_d_a6_a1_proc_0
      + pi_d_a6_a1_proc_1 - pi_d_a2_a6_proc_3 - pi_d_a2_a6_proc_0
      + pi_d_a6_a2_proc_3 + pi_d_a6_a2_proc_0 - pi_d_a3_a6_proc_3
      - pi_d_a3_a6_proc_0 + pi_d_a6_a3_proc_3 + pi_d_a6_a3_proc_0
      - pi_d_a4_a6_proc_3 - pi_d_a4_a6_proc_0 - pi_d_a4_a6_proc_1
      + pi_d_a6_a4_proc_3 + pi_d_a6_a4_proc_0 + pi_d_a6_a4_proc_1
      - pi_d_a5_a6_proc_3 - pi_d_a5_a6_proc_0 - pi_d_a5_a6_proc_1
      + pi_d_a6_a5_proc_3 + pi_d_a6_a5_proc_0 + pi_d_a6_a5_proc_1
      + pi_d_a6_a7_proc_1 - pi_d_a7_a6_proc_1 + pi_d_a6_a8_proc_3
      + pi_d_a6_a8_proc_0 - pi_d_a8_a6_proc_3 - pi_d_a8_a6_proc_0
      + pi_d_a6_a9_proc_3 + pi_d_a6_a9_proc_0 + pi_d_a6_a9_proc_1
      - pi_d_a9_a6_proc_3 - pi_d_a9_a6_proc_0 - pi_d_a9_a6_proc_1 >= 0
 c28: 958 pi_p_a6_a7 + 958 pi_p_a6_a2 + 958 pi_p_a6_a9 + 958 pi_d_a6_a1_proc_0
      + 958 pi_d_a6_a2_proc_0 + 958 pi_d_a6_a3_proc_0 + 958 pi_d_a6_a4_proc_0
      + 958 pi_d_a6_a5_proc_0 + 958 pi_d_a6_a8_proc_0 + 958 pi_d_a6_a9_proc_0
      + pi_y1_a6 + pi_y2_a6_proc_0 >= 0
 c29: 965 pi_p_a6_a7 + 965 pi_p_a6_a2 + 965 pi_p_a6_a9 + 965 pi_d_a6_a0_proc_1
      + 965 pi_d_a6_a1_proc_1 + 965 pi_d_a6_a4_proc_1 + 965 pi_d_a6_a5_proc_1
      + 965 pi_d_a6_a7_proc_1 + 965 pi_d_a6_a9_proc_1 + pi_y1_a6
      + pi_y2_a6_proc_1 >= 0
 c30: 914 pi_p_a6_a7 + 914 pi_p_a6_a2 + 914 pi_p_a6_a9 + 914 pi_d_a6_a0_proc_3
      + 914 pi_d_a6_a2_proc_3 + 914 pi_d_a6_a3_proc_3 + 914 pi_d_a6_a4_proc_3
      + 914 pi_d_a6_a5_proc_3 + 914 pi_d_a6_a8_proc_3 + 914 pi_d_a6_a9_proc_3
      + pi_y1_a6 + pi_y2_a6_proc_3 >= 0
 c31: - pi_p_a6_a7 - pi_p_a8_a7 - pi_d_a0_a7_proc_1 + pi_d_a7_a0_proc_1
      - pi_d_a1_a7_proc_1 + pi_d_a7_a1_proc_1 - pi_d_a4_a7_proc_1
      + pi_d_a7_a4_proc_1 - pi_d_a5_a7_proc_1 + pi_d_a7_a5_proc_1
      - pi_d_a6_a7_proc_1 + pi_d_a7_a6_proc_1 + pi_d_a7_a9_proc_1
      - pi_d_a9_a7_proc_1 >= 0
 c32: 1252 pi_d_a7_a0_proc_1 + 1252 pi_d_a7_a1_proc_1 + 1252 pi_d_a7_a4_proc_1
      + 1252 pi_d_a7_a5_proc_1 + 1252 pi_d_a7_a6_proc_1 + 1252 pi_d_a7_a9_proc_1
      + pi_y1_a7 + pi_y2_a7_proc_1 >= 0
 c33: pi_p_a8_a3 - pi_p_a4_a8 + pi_p_a8_a7 - pi_p_a2_a8 - pi_d_a0_a8_proc_2
      - pi_d_a0_a8_proc_3 + pi_d_a8_a0_proc_2 + pi_d_a8_a0_proc_3
      - pi_d_a1_a8_proc_0 + pi_d_a8_a1_proc_0 - pi_d_a2_a8_proc_2
      - pi_d_a2_a8_proc_3 - pi_d_a2_a8_proc_0 + pi_d_a8_a2_proc_2
      + pi_d_a8_a2_proc_3 + pi_d_a8_a2_proc_0 - pi_d_a3_a8_proc_2
      - pi_d_a3_a8_proc_3 - pi_d_a3_a8_proc_0 + pi_d_a8_a3_proc_2
      + pi_d_a8_a3_proc_3 + pi_d_a8_a3_proc_0 - pi_d_a4_a8_proc_2
      - pi_d_a4_a8_proc_3 - pi_d_a4_a8_proc_0 + pi_d_a8_a4_proc_2
      + pi_d_a8_a4_proc_3 + pi_d_a8_a4_proc_0 - pi_d_a5_a8_proc_2
      - pi_d_a5_a8_proc_3 - pi_d_a5_a8_proc_0 + pi_d_a8_a5_proc_2
      + pi_d_a8_a5_proc_3 + pi_d_a8_a5_proc_0 - pi_d_a6_a8_proc_3
      - pi_d_a6_a8_proc_0 + pi_d_a8_a6_proc_3 + pi_d_a8_a6_proc_0
      + pi_d_a8_a9_proc_3 + pi_d_a8_a9_proc_0 - pi_d_a9_a8_proc_3
      - pi_d_a9_a8_proc_0 >= 0
 c34: 1052 pi_p_a8_a3 + 1052 pi_p_a8_a7 + 1052 pi_d_a8_a1_proc_0
      + 1052 pi_d_a8_a2_proc_0 + 1052 pi_d_a8_a3_proc_0 + 1052 pi_d_a8_a4_proc_0
      + 1052 pi_d_a8_a5_proc_0 + 1052 pi_d_a8_a6_proc_0 + 1052 pi_d_a8_a9_proc_0
      + pi_y1_a8 + pi_y2_a8_proc_0 >= 0
 c35: 1085 pi_p_a8_a3 + 1085 pi_p_a8_a7 + 1085 pi_d_a8_a0_proc_2
      + 1085 pi_d_a8_a2_proc_2 + 1085 pi_d_a8_a3_proc_2 + 1085 pi_d_a8_a4_proc_2
      + 1085 pi_d_a8_a5_proc_2 + pi_y1_a8 + pi_y2_a8_proc_2 >= 0
 c36: 1282 pi_p_a8_a3 + 1282 pi_p_a8_a7 + 1282 pi_d_a8_a0_proc_3
      + 1282 pi_d_a8_a2_proc_3 + 1282 pi_d_a8_a3_proc_3 + 1282 pi_d_a8_a4_proc_3
      + 1282 pi_d_a8_a5_proc_3 + 1282 pi_d_a8_a6_proc_3 + 1282 pi_d_a8_a9_proc_3
      + pi_y1_a8 + pi_y2_a8_proc_3 >= 0
 c37: pi_p_a9_a1 - pi_p_a6_a9 - pi_d_a0_a9_proc_3 - pi_d_a0_a9_proc_1
      + pi_d_a9_a0_proc_3 + pi_d_a9_a0_proc_1 - pi_d_a1_a9_proc_0
      - pi_d_a1_a9_proc_1 + pi_d_a9_a1_proc_0 + pi_d_a9_a1_proc_1
      - pi_d_a2_a9_proc_3 - pi_d_a2_a9_proc_0 + pi_d_a9_a2_proc_3
      + pi_d_a9_a2_proc_0 - pi_d_a3_a9_proc_3 - pi_d_a3_a9_proc_0
      + pi_d_a9_a3_proc_3 + pi_d_a9_a3_proc_0 - pi_d_a4_a9_proc_3
      - pi_d_a4_a9_proc_0 - pi_d_a4_a9_proc_1 + pi_d_a9_a4_proc_3
      + pi_d_a9_a4_proc_0 + pi_d_a9_a4_proc_1 - pi_d_a5_a9_proc_3
      - pi_d_a5_a9_proc_0 - pi_d_a5_a9_proc_1 + pi_d_a9_a5_proc_3
      + pi_d_a9_a5_proc_0 + pi_d_a9_a5_proc_1 - pi_d_a6_a9_proc_3
      - pi_d_a6_a9_proc_0 - pi_d_a6_a9_proc_1 + pi_d_a9_a6_proc_3
      + pi_d_a9_a6_proc_0 + pi_d_a9_a6_proc_1 - pi_d_a7_a9_proc_1
      + pi_d_a9_a7_proc_1 - pi_d_a8_a9_proc_3 - pi_d_a8_a9_proc_0
      + pi_d_a9_a8_proc_3 + pi_d_a9_a8_proc_0 >= 0
 c38: 537 pi_p_a9_a1 + 537 pi_d_a9_a1_proc_0 + 537 pi_d_a9_a2_proc_0
      + 537 pi_d_a9_a3_proc_0 + 537 pi_d_a9_a4_proc_0 + 537 pi_d_a9_a5_proc_0
      + 537 pi_d_a9_a6_proc_0 + 537 pi_d_a9_a8_proc_0 + pi_y1_a9
      + pi_y2_a9_proc_0 >= 0
 c39: 1209 pi_p_a9_a1 + 1209 pi_d_a9_a0_proc_1 + 1209 pi_d_a9_a1_proc_1
      + 1209 pi_d_a9_a4_proc_1 + 1209 pi_d_a9_a5_proc_1 + 1209 pi_d_a9_a6_proc_1
      + 1209 pi_d_a9_a7_proc_1 + pi_y1_a9 + pi_y2_a9_proc_1 >= 0
 c40: 283 pi_p_a9_a1 + 283 pi_d_a9_a0_proc_3 + 283 pi_d_a9_a2_proc_3
      + 283 pi_d_a9_a3_proc_3 + 283 pi_d_a9_a4_proc_3 + 283 pi_d_a9_a5_proc_3
      + 283 pi_d_a9_a6_proc_3 + 283 pi_d_a9_a8_proc_3 + pi_y1_a9
      + pi_y2_a9_proc_3 >= 0

Bounds
       pi_y1_a0 Free
       pi_y1_a1 Free
       pi_y1_a2 Free
       pi_y1_a3 Free
       pi_y1_a4 Free
       pi_y1_a5 Free
       pi_y1_a6 Free
       pi_y1_a7 Free
       pi_y1_a8 Free
       pi_y1_a9 Free
End
